1000
[202,203,209,211,212,221,222,227,228,234,235,238,243,244,248,262,275,280,287,299,300,301,303,304,306,324,326,327,328,339,341,343,345,347,354,360,361,363,364,365,366,367,370,386,387,388,390,398,403,404,406,409,413,419,424,431,432,433,439,446,447,448,449,453,458,459,462,466,473,474,485,488,490,491,492,497,500,501,509,519,523,525,527,532,533,537,538,539,540,541,545,547,555,556,557,558,559,561,569,570,579,580,588,591,592,593,596,604,607,608,611,612,616,622,626,630,635,636,638,649,653,656,657,679,681,684,687,690,700,704,709,710,714,715,716,717,719,721,725,731,735,736,738,739,740,749,750,756,758,762,765,767,769,770,772,775,778,779,782,786,789,790,794,798]
[2,2,2,2,1,1,1,1,1,2,1,1,2,1,2,1,1,1,1,1,1,3,2,1,1,1,2,2,1,1,1,1,3,1,1,1,1,1,2,1,1,1,1,1,1,1,1,1,1,1,1,2,1,1,1,1,1,2,1,1,1,1,1,1,2,1,1,1,1,1,1,1,1,1,2,1,1,1,1,1,1,1,1,1,3,1,3,1,1,1,2,1,1,1,1,1,1,2,1,1,1,1,1,2,1,1,1,2,1,1,1,1,1,1,1,2,1,1,1,1,1,1,1,2,1,1,1,1,1,1,1,1,1,1,1,1,3,1,2,1,1,1,1,1,1,1,1,2,2,1,1,1,1,1,1,1,2,1,1,1,2,1,1,1]
